n_res = 6;
rc = [ 10, 10, 10, 10, 10, 10 ];
n_tasks = 101;
d = [ 10, 3, 1, 1, 6, 9, 7, 10, 1, 5, 2, 8, 1, 6, 4, 1, 10, 2, 7, 1, 3, 1, 5, 3, 5, 2, 2, 3, 9, 5, 7, 1, 5, 1, 10, 9, 3, 3, 7, 4, 5, 7, 9, 8, 3, 6, 4, 3, 1, 1, 10, 1, 7, 7, 9, 4, 10, 4, 7, 8, 5, 3, 4, 10, 1, 3, 1, 2, 7, 5, 3, 1, 2, 1, 1, 2, 8, 2, 6, 6, 10, 2, 10, 9, 9, 1, 3, 2, 2, 2, 7, 4, 8, 9, 10, 3, 1, 5, 9, 10, 2 ];
rr = [| 0, 6, 0, 5, 0, 0, 0, 3, 9, 0, 5, 8, 7, 7, 0, 0, 6, 0, 0, 5, 4, 0, 5, 10, 4, 4, 0, 0, 8, 5, 7, 3, 0, 0, 3, 9, 0, 0, 10, 4, 0, 9, 9, 0, 8, 10, 7, 0, 0, 5, 5, 10, 3, 7, 0, 0, 5, 3, 8, 0, 9, 8, 6, 0, 6, 10, 0, 4, 10, 10, 0, 10, 0, 0, 4, 0, 0, 10, 0, 0, 0, 0, 10, 3, 0, 0, 6, 0, 3, 0, 0, 0, 0, 0, 6, 10, 0, 8, 10, 0, 0
      | 0, 10, 9, 0, 3, 0, 0, 0, 0, 0, 10, 0, 0, 0, 10, 9, 0, 0, 0, 10, 3, 0, 6, 0, 0, 0, 5, 0, 10, 8, 0, 3, 8, 0, 0, 10, 9, 0, 0, 0, 4, 3, 0, 4, 0, 10, 0, 0, 0, 0, 0, 10, 4, 10, 10, 0, 0, 0, 6, 3, 0, 0, 10, 0, 0, 5, 0, 0, 10, 0, 0, 10, 8, 6, 0, 8, 8, 0, 5, 0, 9, 8, 0, 5, 10, 10, 8, 0, 0, 0, 0, 4, 0, 0, 0, 10, 0, 10, 0, 6, 0
      | 0, 0, 0, 10, 9, 0, 4, 3, 0, 0, 3, 10, 5, 0, 5, 0, 10, 10, 0, 0, 0, 10, 4, 10, 8, 7, 8, 6, 10, 7, 3, 0, 8, 0, 0, 9, 0, 10, 10, 0, 9, 3, 0, 10, 0, 0, 0, 3, 0, 0, 0, 8, 10, 4, 6, 5, 0, 0, 0, 10, 0, 6, 5, 0, 10, 0, 0, 0, 3, 0, 10, 9, 5, 0, 5, 0, 0, 9, 0, 0, 0, 0, 10, 0, 0, 10, 9, 10, 0, 8, 0, 5, 0, 3, 0, 7, 10, 6, 0, 3, 0
      | 0, 4, 0, 5, 7, 7, 6, 6, 8, 0, 10, 3, 0, 9, 10, 0, 0, 0, 0, 0, 0, 0, 0, 3, 10, 5, 0, 7, 9, 0, 0, 0, 0, 0, 0, 0, 10, 8, 0, 8, 0, 0, 10, 0, 4, 3, 0, 6, 0, 7, 0, 0, 10, 10, 4, 6, 0, 10, 3, 0, 3, 0, 0, 0, 0, 10, 0, 10, 5, 3, 0, 8, 8, 7, 0, 8, 0, 0, 0, 0, 4, 4, 10, 3, 10, 0, 0, 0, 0, 10, 4, 0, 10, 6, 0, 8, 0, 0, 0, 3, 0
      | 8, 0, 8, 10, 0, 8, 10, 0, 0, 7, 0, 0, 8, 8, 0, 0, 5, 0, 3, 10, 0, 0, 8, 0, 0, 10, 3, 0, 8, 0, 0, 0, 0, 0, 10, 0, 10, 7, 4, 4, 6, 0, 0, 6, 0, 0, 0, 10, 0, 6, 0, 5, 0, 8, 0, 5, 10, 0, 8, 0, 8, 0, 3, 6, 10, 7, 0, 9, 7, 0, 10, 0, 0, 0, 10, 0, 0, 10, 0, 6, 0, 0, 6, 0, 0, 9, 10, 3, 0, 0, 0, 0, 0, 0, 0, 0, 6, 0, 0, 0, 0
      | 0, 5, 0, 6, 0, 8, 0, 3, 5, 0, 10, 3, 0, 8, 5, 8, 0, 0, 8, 0, 3, 8, 0, 0, 0, 5, 10, 10, 4, 7, 7, 10, 0, 0, 7, 0, 0, 3, 8, 9, 4, 0, 0, 9, 3, 0, 4, 4, 8, 0, 3, 0, 0, 0, 0, 7, 10, 9, 0, 8, 9, 0, 3, 9, 0, 7, 0, 5, 5, 4, 0, 5, 2, 4, 5, 0, 0, 7, 0, 10, 10, 0, 3, 10, 0, 5, 7, 2, 0, 0, 0, 0, 5, 0, 0, 10, 7, 2, 8, 6, 2 |];
suc = [ { 5 },
	{ 4 },
	{ 6, 7 },
	{ 9 },
	{ 11 },
	{  },
	{ 8, 10 },
	{ 15 },
	{ 12, 13, 14 },
	{  },
	{  },
	{ 17 },
	{ 16, 18 },
	{ 19 },
	{  },
	{ 22 },
	{ 23 },
	{ 20, 21 },
	{  },
	{ 25 },
	{ 24, 27 },
	{  },
	{ 26 },
	{ 31 },
	{ 28 },
	{  },
	{ 29, 30 },
	{ 32 },
	{  },
	{ 33 },
	{ 34, 35 },
	{ 37, 39 },
	{ 38 },
	{ 36 },
	{  },
	{ 40, 43 },
	{ 41 },
	{ 42 },
	{  },
	{ 44, 45 },
	{ 46, 47 },
	{  },
	{  },
	{ 48 },
	{ 49 },
	{ 51 },
	{ 50 },
	{ 53 },
	{ 52 },
	{ 54, 55 },
	{  },
	{ 58 },
	{ 57 },
	{ 56, 59 },
	{  },
	{ 62 },
	{ 61 },
	{ 63 },
	{ 60 },
	{ 66 },
	{ 64, 65 },
	{  },
	{ 67 },
	{ 70 },
	{ 68 },
	{ 71 },
	{ 69 },
	{ 73 },
	{ 74, 75 },
	{ 72 },
	{  },
	{ 77 },
	{ 79 },
	{ 78, 79 },
	{ 76 },
	{ 81, 82 },
	{ 83 },
	{ 82 },
	{ 80 },
	{ 87 },
	{ 84 },
	{ 84, 85 },
	{ 86 },
	{ 89, 90 },
	{ 88 },
	{ 91 },
	{ 88 },
	{ 92 },
	{ 95 },
	{ 93, 94 },
	{ 94 },
	{ 97 },
	{ 99 },
	{ 96 },
	{ 98 },
	{ 101 },
	{ 101 },
	{ 100 },
	{ 100 },
	{  },
	{  } ];
